CMD:
./solvers/bin/cadical --plain --no-reduce -t 1600 ./data/cnfs//zipversa_composecrc_prf-p17/zipversa_composecrc_prf-p17.4.cnf

c --- [ banner ] -------------------------------------------------------------
c 
c CaDiCaL SAT Solver
c Copyright (c) 2016-2024
c A. Biere, M. Fleury, N. Froleyks, K. Fazekas, F. Pollitt, T. Faller
c JKU Linz, University of Freiburg, TU Wien
c 
c Version 2.1.3 5296d3d2a9bf48c154ab2acb5e44625776d821bf
c g++ (Gentoo 12.3.1_p20230526 p2) 12.3.1 20230526 -Wall -Wextra -O3 -DNDEBUG
c Sat Aug 9 07:26:21 PDT 2025 Linux cedar2.int.cedar.computecanada.ca 5.14.0-362.24.2.el9_3.x86_64 x86_64
c 
c --- [ limit ] --------------------------------------------------------------
c 
c setting time limit to 1600 seconds real time (due to '-t 1600')
c 
c --- [ parsing input ] ------------------------------------------------------
c 
c reading DIMACS file from './data/cnfs//zipversa_composecrc_prf-p17/zipversa_composecrc_prf-p17.4.cnf'
c opening file to read './data/cnfs//zipversa_composecrc_prf-p17/zipversa_composecrc_prf-p17.4.cnf'
c found 'p cnf 14430 41704' header
c parsed 41704 clauses in 0.01 seconds process time
c 
c --- [ options ] ------------------------------------------------------------
c 
c   --compact=false                (different from default 'true')
c   --decompose=false              (different from default 'true')
c   --deduplicate=false            (different from default 'true')
c   --elim=false                   (different from default 'true')
c   --probe=false                  (different from default 'true')
c   --reduce=false                 (different from default 'true')
c   --subsume=false                (different from default 'true')
c   --ternary=false                (different from default 'true')
c   --transred=false               (different from default 'true')
c   --vivify=false                 (different from default 'true')
c 
c --- [ solving ] ------------------------------------------------------------
c 
c time measured in process time since initialization
c 
c  seconds  reductions  redundant  irredundant
c         MB    restarts       trail      variables
c          level   conflicts       glue        remaining
c 
c *  0.01 10  0 0   0    0    0  0% 0 35571 10749 74%
c {  0.01 10  0 0   0    0    0  0% 0 35571 10749 74%
c i  0.01 10  0 0   0    1    0 27% 0 35571 10748 74%
c i  0.01 10  1 0   0    2    0 29% 0 35571 10354 72%
c i  0.01 10  1 0   0    3    0 29% 0 35571 10353 72%
c i  0.01 10  1 0   1    4    0 29% 0 35571 10352 72%
c i  0.01 10  1 0   1    5    0 28% 0 35571 10351 72%
c i  0.01 10  1 0   1    6    0 28% 0 35571 10350 72%
c i  0.01 10  1 0   2    7    0 28% 0 35571 10349 72%
c i  0.01 10  1 0   2    8    0 28% 0 35571 10348 72%
c i  0.01 10  1 0   2    9    0 28% 0 35571 10347 72%
c i  0.01 10  1 0   3   10    0 28% 0 35571 10346 72%
c i  0.01 10 27 0   6   20    9 35% 2 35571 10338 72%
c i  0.01 10 26 0   6   21    9 35% 2 35571 10337 72%
c i  0.01 10 35 0   7   28   15 37% 2 35571 10336 72%
c i  0.01 10 46 0  10   53   27 44% 2 35571 9624 67%
c }  0.01 10 45 0  10   55   27 44% 2 35571 9612 67%
c 0  0.01 10 45 0  10   55   27 44% 2 35571 9612 67%
c 
c --- [ result ] -------------------------------------------------------------
c 
s UNSATISFIABLE
c 
c --- [ run-time profiling ] -------------------------------------------------
c 
c process time taken by individual solving procedures
c (percentage relative to process time for solving)
c 
c         0.01  224.47% parse
c         0.00   97.63% search
c         0.00   65.84% unstable
c         0.00   31.41% lucky
c         0.00    0.00% simplify
c   =================================
c         0.00   29.89% solve
c 
c last line shows process time for solving
c (percentage relative to total process time)
c 
c --- [ statistics ] ---------------------------------------------------------
c 
c chronological:                43        78.18 %  of conflicts
c conflicts:                    55     21064.73    per second
c decisions:                   911    348908.46    per second
c fixed:                      4593        31.83 %  of all variables
c learned:                      46        83.64 %  per conflict
c learned_lits:                168       100.00 %  learned literals
c minimized:                     0         0.00 %  learned literals
c shrunken:                      9         5.36 %  learned literals
c minishrunken:                  1         0.60 %  learned literals
c otfs:                          0         0.00 %  of conflict
c propagations:              41650        15.95 M  per second
c restarts:                     10         5.50    interval
c 
c seconds are measured in process time for solving
c 
c --- [ resources ] ----------------------------------------------------------
c 
c total process time since initialization:         0.01    seconds
c total real time since initialization:            0.01    seconds
c maximum resident set size of process:           28.30    MB
c 
c --- [ shutting down ] ------------------------------------------------------
c 
c exit 20
